# (use the command "$ sed -e '/^#/d' -e 's/#.*$//' <filename>" to remove comments)
# Grid has continuous boundary conditions and 1000 x 1000 nodes.
#     Edge Frequency Largest Group Frac
                   0              1e-06
                0.02              6e-06
                0.04              7e-06
                0.06              1e-05
                0.08            1.2e-05
                 0.1            1.4e-05
                0.12            1.5e-05
                0.14            1.8e-05
                0.16            2.3e-05
                0.18            2.6e-05
                 0.2            3.9e-05
                0.22            4.4e-05
                0.24            4.4e-05
                0.26            7.9e-05
                0.28            7.1e-05
                 0.3            8.7e-05
                0.32           0.000121
                0.34           0.000163
                0.36           0.000217
                0.38           0.000228
                 0.4           0.000387
                0.42           0.000604
                0.44           0.001145
                0.46           0.002611
                0.48            0.01024
                 0.5           0.549138
                0.52           0.796304
                0.54           0.868989
                0.56           0.903601
                0.58           0.931413
                 0.6           0.948447
                0.62           0.961892
                0.64             0.9716
                0.66           0.979096
                0.68            0.98399
                 0.7           0.988566
                0.72           0.991702
                0.74           0.994025
                0.76           0.995874
                0.78           0.997222
                 0.8            0.99813
                0.82           0.998794
                0.84            0.99929
                0.86           0.999592
                0.88           0.999776
                 0.9            0.99988
                0.92           0.999947
                0.94           0.999987
                0.96           0.999994
                0.98           0.999999
                   1                  1
